sat
(:added-eqs                       184
 :arith-eq-adapter                51
 :arith-bound-propagations-lp     6
 :arith-conflicts                 51
 :arith-diseq                     72
 :arith-fixed-eqs                 31
 :arith-gcd-calls                 5
 :arith-grobner-calls             24
 :arith-grobner-conflicts         6
 :arith-horner-calls              6
 :arith-horner-cross-nested-forms 51
 :arith-lower                     203
 :arith-make-feasible             158
 :arith-max-columns               542
 :arith-max-rows                  37
 :arith-nla-add-bounds            19
 :arith-nla-lemmas                18
 :arith-nla-propagate-bounds      15
 :arith-nla-propagate-eq          75
 :arith-nra-calls                 2
 :arith-patches                   5
 :arith-patches-success           5
 :arith-upper                     799
 :binary-propagations             1352
 :card2bv-rewrites                6
 :conflicts                       20
 :decisions                       2967
 :del-clause                      100
 :elim-unconstrained              13
 :final-checks                    55
 :max-memory                      22.65
 :memory                          18.91
 :minimized-lits                  124
 :mk-bool-var                     902
 :mk-clause                       154
 :mk-clause-binary                683
 :num-allocs                      6727321
 :num-checks                      1
 :propagations                    1483
 :rlimit-count                    220427
 :time                            0.11
 :total-time                      0.13)
